(set-info :smt-lib-version 2.6)
(set-logic QF_NIA)
(set-info :source |
Generated by: Cristina Borralleras, Daniel Larraz, Albert Oliveras, Enric Rodriguez-Carbonell, Albert Rubio
Generated on: 2017-04-27
Generator: VeryMax
Application: Termination proving
Target solver: barcelogic
|)
(set-info :license "https://creativecommons.org/licenses/by/4.0/")
(set-info :category "industrial")
(set-info :status unsat)
(declare-fun Nl2main_i1 () Int)
(declare-fun lam0n1 () Int)
(declare-fun lam0n0 () Int)
(declare-fun Nl2CT1 () Int)
(declare-fun lam1n1 () Int)
(declare-fun lam1n0 () Int)
(declare-fun lam2n0 () Int)
(declare-fun lam2n1 () Int)
(declare-fun lam2n2 () Int)
(declare-fun lam3n0 () Int)
(declare-fun lam3n1 () Int)
(declare-fun lam3n2 () Int)
(declare-fun lam6n1 () Int)
(declare-fun lam6n0 () Int)
(declare-fun RFN1_CT () Int)
(declare-fun RFN1_main_i () Int)
(declare-fun lam9n0 () Int)
(declare-fun lam9n1 () Int)
(declare-fun lam9n2 () Int)
(declare-fun lam4n1 () Int)
(declare-fun lam4n0 () Int)
(declare-fun lam5n1 () Int)
(declare-fun lam5n0 () Int)
(declare-fun lam10n1 () Int)
(declare-fun lam10n0 () Int)
(assert ( and ( <= ( - 29 ) Nl2main_i1 ) ( <= Nl2main_i1 29 ) ))
(assert ( or ( and ( >= lam0n1 0 ) ( > ( + ( * ( - 25 ) lam0n0 ) ( * Nl2CT1 lam0n1 ) ( - 1 ) ) 0 ) ( = ( + ( * 1 lam0n0 ) ( * Nl2main_i1 lam0n1 ) ) 0 ) ) ( and ( >= lam1n1 0 ) ( > ( + ( * ( - 25 ) lam1n0 ) ( * Nl2CT1 lam1n1 ) ( - 1 ( + Nl2CT1 ( * Nl2main_i1 29 ) ) ) ) 0 ) ( = ( + ( * 1 lam1n0 ) ( * Nl2main_i1 lam1n1 ) ) 0 ) ) ))
(assert ( or ( and ( >= lam2n0 0 ) ( >= lam2n1 0 ) ( >= lam2n2 0 ) ( > ( + ( * ( - 30 ) lam2n0 ) ( * 26 lam2n1 ) ( * Nl2CT1 lam2n2 ) ( - 1 ) ) 0 ) ( = ( + ( * 1 lam2n0 ) ( * ( - 1 ) lam2n1 ) ( * Nl2main_i1 lam2n2 ) ) 0 ) ) ( and ( >= lam3n0 0 ) ( >= lam3n1 0 ) ( >= lam3n2 0 ) ( > ( + ( * ( - 30 ) lam3n0 ) ( * 26 lam3n1 ) ( * Nl2CT1 lam3n2 ) ( - 1 ( + Nl2CT1 ( * Nl2main_i1 ( - 1 ) ) ) ) ) 0 ) ( = ( + ( * 1 lam3n0 ) ( * ( - 1 ) lam3n1 ) ( * Nl2main_i1 lam3n2 ) ( - ( + 0 ( * Nl2main_i1 1 ) ) ) ) 0 ) ) ))
(assert ( and ( or ( and ( >= lam0n1 0 ) ( > ( + ( * ( - 25 ) lam0n0 ) ( * Nl2CT1 lam0n1 ) ( - 1 ) ) 0 ) ( = ( + ( * 1 lam0n0 ) ( * Nl2main_i1 lam0n1 ) ) 0 ) ) ( and ( >= lam6n1 0 ) ( > ( + ( * ( - 25 ) lam6n0 ) ( * Nl2CT1 lam6n1 ) ( - 1 ( - ( + RFN1_CT ( * RFN1_main_i 29 ) ) RFN1_CT ) ) ) 0 ) ( = ( + ( * 1 lam6n0 ) ( * Nl2main_i1 lam6n1 ) ( - ( - RFN1_main_i ) ) ) 0 ) ) ) ( or ( and ( >= lam2n0 0 ) ( >= lam2n1 0 ) ( >= lam2n2 0 ) ( > ( + ( * ( - 30 ) lam2n0 ) ( * 26 lam2n1 ) ( * Nl2CT1 lam2n2 ) ( - 1 ) ) 0 ) ( = ( + ( * 1 lam2n0 ) ( * ( - 1 ) lam2n1 ) ( * Nl2main_i1 lam2n2 ) ) 0 ) ) ( and ( >= lam9n0 0 ) ( >= lam9n1 0 ) ( >= lam9n2 0 ) ( > ( + ( * ( - 30 ) lam9n0 ) ( * 26 lam9n1 ) ( * Nl2CT1 lam9n2 ) ( - 1 ( - ( + RFN1_CT ( * RFN1_main_i ( - 1 ) ) ) RFN1_CT ) ) ) 0 ) ( = ( + ( * 1 lam9n0 ) ( * ( - 1 ) lam9n1 ) ( * Nl2main_i1 lam9n2 ) ( - ( - ( + 0 ( * RFN1_main_i 1 ) ) RFN1_main_i ) ) ) 0 ) ) ) ))
(assert ( and ( and ( and ( >= lam4n1 0 ) ( > ( + ( * ( - 25 ) lam4n0 ) ( * Nl2CT1 lam4n1 ) ( - 1 ( - RFN1_CT ) ) ) 0 ) ( = ( + ( * 1 lam4n0 ) ( * Nl2main_i1 lam4n1 ) ( - ( - RFN1_main_i ) ) ) 0 ) ) ( and ( >= lam5n1 0 ) ( > ( + ( * ( - 25 ) lam5n0 ) ( * Nl2CT1 lam5n1 ) ( - 1 ( + ( - ( + RFN1_CT ( * RFN1_main_i 29 ) ) RFN1_CT ) 1 ) ) ) 0 ) ( = ( + ( * 1 lam5n0 ) ( * Nl2main_i1 lam5n1 ) ( - ( - RFN1_main_i ) ) ) 0 ) ) ) ( and ( >= lam10n1 0 ) ( > ( + ( * ( - 25 ) lam10n0 ) ( * ( + ( - Nl2CT1 ) 1 ) lam10n1 ) ( - 1 ) ) 0 ) ( = ( + ( * 1 lam10n0 ) ( * ( - Nl2main_i1 ) lam10n1 ) ) 0 ) ) ))
(check-sat)
(exit)
